c A 3SAT instance whose satisfying assignment encodes the subset of [1, 2, 2, 3, 3, 3, 4, 4, 4, 4] that add up to 15
c One possible solution is: [0, 0, 0, 0, 1, 0, 1, 1, 1, 0]
p cnf 139 558
11 0
-12 0
-13 0
14 0
-15 0
16 0
17 0
18 0
-19 0
20 0
21 0
-22 0
23 0
24 0
-25 0
-26 0
-27 0
28 0
-29 0
-30 0
31 0
-32 0
-33 0
34 0
-35 0
-36 0
37 0
-38 1 11 0
-38 -1 11 0
-38 1 -11 0
38 -1 -11 0
-39 1 12 0
-39 -1 12 0
-39 1 -12 0
39 -1 -12 0
-40 2 13 0
-40 -2 13 0
-40 2 -13 0
40 -2 -13 0
-41 2 14 0
-41 -2 14 0
-41 2 -14 0
41 -2 -14 0
-42 3 15 0
-42 -3 15 0
-42 3 -15 0
42 -3 -15 0
-43 3 16 0
-43 -3 16 0
-43 3 -16 0
43 -3 -16 0
-44 4 17 0
-44 -4 17 0
-44 4 -17 0
44 -4 -17 0
-45 4 18 0
-45 -4 18 0
-45 4 -18 0
45 -4 -18 0
-46 4 19 0
-46 -4 19 0
-46 4 -19 0
46 -4 -19 0
-47 5 20 0
-47 -5 20 0
-47 5 -20 0
47 -5 -20 0
-48 5 21 0
-48 -5 21 0
-48 5 -21 0
48 -5 -21 0
-49 5 22 0
-49 -5 22 0
-49 5 -22 0
49 -5 -22 0
-50 6 23 0
-50 -6 23 0
-50 6 -23 0
50 -6 -23 0
-51 6 24 0
-51 -6 24 0
-51 6 -24 0
51 -6 -24 0
-52 6 25 0
-52 -6 25 0
-52 6 -25 0
52 -6 -25 0
-53 7 26 0
-53 -7 26 0
-53 7 -26 0
53 -7 -26 0
-54 7 27 0
-54 -7 27 0
-54 7 -27 0
54 -7 -27 0
-55 7 28 0
-55 -7 28 0
-55 7 -28 0
55 -7 -28 0
-56 8 29 0
-56 -8 29 0
-56 8 -29 0
56 -8 -29 0
-57 8 30 0
-57 -8 30 0
-57 8 -30 0
57 -8 -30 0
-58 8 31 0
-58 -8 31 0
-58 8 -31 0
58 -8 -31 0
-59 9 32 0
-59 -9 32 0
-59 9 -32 0
59 -9 -32 0
-60 9 33 0
-60 -9 33 0
-60 9 -33 0
60 -9 -33 0
-61 9 34 0
-61 -9 34 0
-61 9 -34 0
61 -9 -34 0
-62 10 35 0
-62 -10 35 0
-62 10 -35 0
62 -10 -35 0
-63 10 36 0
-63 -10 36 0
-63 10 -36 0
63 -10 -36 0
-64 10 37 0
-64 -10 37 0
-64 10 -37 0
64 -10 -37 0
-65 38 0
65 -38 0
-66 39 0
66 -39 0
-67 65 40 0
67 -65 40 0
67 65 -40 0
-67 -65 -40 0
-70 65 40 0
-70 -65 40 0
-70 65 -40 0
70 -65 -40 0
-68 70 66 41 0
68 -70 66 41 0
68 70 -66 41 0
-68 -70 -66 41 0
68 70 66 -41 0
-68 -70 66 -41 0
-68 70 -66 -41 0
68 -70 -66 -41 0
-71 66 41 70 0
-71 -66 41 70 0
-71 66 -41 70 0
71 -66 -41 70 0
-71 66 41 -70 0
71 -66 41 -70 0
71 66 -41 -70 0
71 -66 -41 -70 0
-69 71 0
69 -71 0
-72 67 42 0
72 -67 42 0
72 67 -42 0
-72 -67 -42 0
-75 67 42 0
-75 -67 42 0
-75 67 -42 0
75 -67 -42 0
-73 75 68 43 0
73 -75 68 43 0
73 75 -68 43 0
-73 -75 -68 43 0
73 75 68 -43 0
-73 -75 68 -43 0
-73 75 -68 -43 0
73 -75 -68 -43 0
-76 68 43 75 0
-76 -68 43 75 0
-76 68 -43 75 0
76 -68 -43 75 0
-76 68 43 -75 0
76 -68 43 -75 0
76 68 -43 -75 0
76 -68 -43 -75 0
-74 76 69 0
74 -76 69 0
74 76 -69 0
-74 -76 -69 0
-77 76 69 0
-77 -76 69 0
-77 76 -69 0
77 -76 -69 0
-78 72 44 0
78 -72 44 0
78 72 -44 0
-78 -72 -44 0
-82 72 44 0
-82 -72 44 0
-82 72 -44 0
82 -72 -44 0
-79 82 73 45 0
79 -82 73 45 0
79 82 -73 45 0
-79 -82 -73 45 0
79 82 73 -45 0
-79 -82 73 -45 0
-79 82 -73 -45 0
79 -82 -73 -45 0
-83 73 45 82 0
-83 -73 45 82 0
-83 73 -45 82 0
83 -73 -45 82 0
-83 73 45 -82 0
83 -73 45 -82 0
83 73 -45 -82 0
83 -73 -45 -82 0
-80 83 74 46 0
80 -83 74 46 0
80 83 -74 46 0
-80 -83 -74 46 0
80 83 74 -46 0
-80 -83 74 -46 0
-80 83 -74 -46 0
80 -83 -74 -46 0
-84 74 46 83 0
-84 -74 46 83 0
-84 74 -46 83 0
84 -74 -46 83 0
-84 74 46 -83 0
84 -74 46 -83 0
84 74 -46 -83 0
84 -74 -46 -83 0
-81 84 0
81 -84 0
-85 78 47 0
85 -78 47 0
85 78 -47 0
-85 -78 -47 0
-89 78 47 0
-89 -78 47 0
-89 78 -47 0
89 -78 -47 0
-86 89 79 48 0
86 -89 79 48 0
86 89 -79 48 0
-86 -89 -79 48 0
86 89 79 -48 0
-86 -89 79 -48 0
-86 89 -79 -48 0
86 -89 -79 -48 0
-90 79 48 89 0
-90 -79 48 89 0
-90 79 -48 89 0
90 -79 -48 89 0
-90 79 48 -89 0
90 -79 48 -89 0
90 79 -48 -89 0
90 -79 -48 -89 0
-87 90 80 49 0
87 -90 80 49 0
87 90 -80 49 0
-87 -90 -80 49 0
87 90 80 -49 0
-87 -90 80 -49 0
-87 90 -80 -49 0
87 -90 -80 -49 0
-91 80 49 90 0
-91 -80 49 90 0
-91 80 -49 90 0
91 -80 -49 90 0
-91 80 49 -90 0
91 -80 49 -90 0
91 80 -49 -90 0
91 -80 -49 -90 0
-88 91 81 0
88 -91 81 0
88 91 -81 0
-88 -91 -81 0
-92 91 81 0
-92 -91 81 0
-92 91 -81 0
92 -91 -81 0
-93 85 50 0
93 -85 50 0
93 85 -50 0
-93 -85 -50 0
-97 85 50 0
-97 -85 50 0
-97 85 -50 0
97 -85 -50 0
-94 97 86 51 0
94 -97 86 51 0
94 97 -86 51 0
-94 -97 -86 51 0
94 97 86 -51 0
-94 -97 86 -51 0
-94 97 -86 -51 0
94 -97 -86 -51 0
-98 86 51 97 0
-98 -86 51 97 0
-98 86 -51 97 0
98 -86 -51 97 0
-98 86 51 -97 0
98 -86 51 -97 0
98 86 -51 -97 0
98 -86 -51 -97 0
-95 98 87 52 0
95 -98 87 52 0
95 98 -87 52 0
-95 -98 -87 52 0
95 98 87 -52 0
-95 -98 87 -52 0
-95 98 -87 -52 0
95 -98 -87 -52 0
-99 87 52 98 0
-99 -87 52 98 0
-99 87 -52 98 0
99 -87 -52 98 0
-99 87 52 -98 0
99 -87 52 -98 0
99 87 -52 -98 0
99 -87 -52 -98 0
-96 99 88 0
96 -99 88 0
96 99 -88 0
-96 -99 -88 0
-100 99 88 0
-100 -99 88 0
-100 99 -88 0
100 -99 -88 0
-101 93 53 0
101 -93 53 0
101 93 -53 0
-101 -93 -53 0
-106 93 53 0
-106 -93 53 0
-106 93 -53 0
106 -93 -53 0
-102 106 94 54 0
102 -106 94 54 0
102 106 -94 54 0
-102 -106 -94 54 0
102 106 94 -54 0
-102 -106 94 -54 0
-102 106 -94 -54 0
102 -106 -94 -54 0
-107 94 54 106 0
-107 -94 54 106 0
-107 94 -54 106 0
107 -94 -54 106 0
-107 94 54 -106 0
107 -94 54 -106 0
107 94 -54 -106 0
107 -94 -54 -106 0
-103 107 95 55 0
103 -107 95 55 0
103 107 -95 55 0
-103 -107 -95 55 0
103 107 95 -55 0
-103 -107 95 -55 0
-103 107 -95 -55 0
103 -107 -95 -55 0
-108 95 55 107 0
-108 -95 55 107 0
-108 95 -55 107 0
108 -95 -55 107 0
-108 95 55 -107 0
108 -95 55 -107 0
108 95 -55 -107 0
108 -95 -55 -107 0
-104 108 96 0
104 -108 96 0
104 108 -96 0
-104 -108 -96 0
-109 108 96 0
-109 -108 96 0
-109 108 -96 0
109 -108 -96 0
-105 109 0
105 -109 0
-110 101 56 0
110 -101 56 0
110 101 -56 0
-110 -101 -56 0
-115 101 56 0
-115 -101 56 0
-115 101 -56 0
115 -101 -56 0
-111 115 102 57 0
111 -115 102 57 0
111 115 -102 57 0
-111 -115 -102 57 0
111 115 102 -57 0
-111 -115 102 -57 0
-111 115 -102 -57 0
111 -115 -102 -57 0
-116 102 57 115 0
-116 -102 57 115 0
-116 102 -57 115 0
116 -102 -57 115 0
-116 102 57 -115 0
116 -102 57 -115 0
116 102 -57 -115 0
116 -102 -57 -115 0
-112 116 103 58 0
112 -116 103 58 0
112 116 -103 58 0
-112 -116 -103 58 0
112 116 103 -58 0
-112 -116 103 -58 0
-112 116 -103 -58 0
112 -116 -103 -58 0
-117 103 58 116 0
-117 -103 58 116 0
-117 103 -58 116 0
117 -103 -58 116 0
-117 103 58 -116 0
117 -103 58 -116 0
117 103 -58 -116 0
117 -103 -58 -116 0
-113 117 104 0
113 -117 104 0
113 117 -104 0
-113 -117 -104 0
-118 117 104 0
-118 -117 104 0
-118 117 -104 0
118 -117 -104 0
-114 118 105 0
114 -118 105 0
114 118 -105 0
-114 -118 -105 0
-119 118 105 0
-119 -118 105 0
-119 118 -105 0
119 -118 -105 0
-120 110 59 0
120 -110 59 0
120 110 -59 0
-120 -110 -59 0
-125 110 59 0
-125 -110 59 0
-125 110 -59 0
125 -110 -59 0
-121 125 111 60 0
121 -125 111 60 0
121 125 -111 60 0
-121 -125 -111 60 0
121 125 111 -60 0
-121 -125 111 -60 0
-121 125 -111 -60 0
121 -125 -111 -60 0
-126 111 60 125 0
-126 -111 60 125 0
-126 111 -60 125 0
126 -111 -60 125 0
-126 111 60 -125 0
126 -111 60 -125 0
126 111 -60 -125 0
126 -111 -60 -125 0
-122 126 112 61 0
122 -126 112 61 0
122 126 -112 61 0
-122 -126 -112 61 0
122 126 112 -61 0
-122 -126 112 -61 0
-122 126 -112 -61 0
122 -126 -112 -61 0
-127 112 61 126 0
-127 -112 61 126 0
-127 112 -61 126 0
127 -112 -61 126 0
-127 112 61 -126 0
127 -112 61 -126 0
127 112 -61 -126 0
127 -112 -61 -126 0
-123 127 113 0
123 -127 113 0
123 127 -113 0
-123 -127 -113 0
-128 127 113 0
-128 -127 113 0
-128 127 -113 0
128 -127 -113 0
-124 128 114 0
124 -128 114 0
124 128 -114 0
-124 -128 -114 0
-129 128 114 0
-129 -128 114 0
-129 128 -114 0
129 -128 -114 0
-130 120 62 0
130 -120 62 0
130 120 -62 0
-130 -120 -62 0
-135 120 62 0
-135 -120 62 0
-135 120 -62 0
135 -120 -62 0
-131 135 121 63 0
131 -135 121 63 0
131 135 -121 63 0
-131 -135 -121 63 0
131 135 121 -63 0
-131 -135 121 -63 0
-131 135 -121 -63 0
131 -135 -121 -63 0
-136 121 63 135 0
-136 -121 63 135 0
-136 121 -63 135 0
136 -121 -63 135 0
-136 121 63 -135 0
136 -121 63 -135 0
136 121 -63 -135 0
136 -121 -63 -135 0
-132 136 122 64 0
132 -136 122 64 0
132 136 -122 64 0
-132 -136 -122 64 0
132 136 122 -64 0
-132 -136 122 -64 0
-132 136 -122 -64 0
132 -136 -122 -64 0
-137 122 64 136 0
-137 -122 64 136 0
-137 122 -64 136 0
137 -122 -64 136 0
-137 122 64 -136 0
137 -122 64 -136 0
137 122 -64 -136 0
137 -122 -64 -136 0
-133 137 123 0
133 -137 123 0
133 137 -123 0
-133 -137 -123 0
-138 137 123 0
-138 -137 123 0
-138 137 -123 0
138 -137 -123 0
-134 138 124 0
134 -138 124 0
134 138 -124 0
-134 -138 -124 0
-139 138 124 0
-139 -138 124 0
-139 138 -124 0
139 -138 -124 0
130 0
131 0
132 0
133 0
-134 0
